Minimize
 obj:
Subject To
- 66 x1 + 49 x2 - 81 x3 + 73 x4 + 15 x5 + 56 x6 + 38 x7 - 26 x8 + 74 x9 + 48 x10 - 11 x11 - 29 x12 + 46 x13 - 48 x14 - 21 x15 + 55 x16 + 68 x17 + 14 x18 + 42 x19 - 84 x20  <= -9
- 78 x1 + 8 x2 - 22 x3 + 13 x4 + 91 x5 + 73 x6 - 68 x7 - 45 x8 - 48 x9 + 84 x10 - 13 x11 + 57 x12 - 75 x13 - 84 x14 + 88 x15 - 95 x16 - 70 x17 - 24 x18 - 69 x19 + 5 x20  <= 75
- 14 x1 - 47 x2 - 37 x3 + 53 x4 - 79 x5 + 53 x6 + 40 x7 - 57 x8 + 52 x9 - 18 x10 + 29 x11 + 85 x12 + 37 x14 - 13 x15 + 21 x16 + 14 x17 + 26 x18 - 7 x19 + 26 x20  <= -73
92 x1 - 71 x2 - 11 x3 - 35 x4 + 90 x5 - 29 x6 - 20 x7 - 80 x8 + 90 x9 + 96 x10 + 14 x11 + 73 x12 - 70 x13 + 81 x14 + 29 x15 - 88 x16 + 90 x17 + 93 x18 + 56 x19 + 60 x20  <= 13
- 44 x1 + 92 x2 + 15 x3 - 13 x4 - 25 x5 + 84 x6 - 95 x7 + 53 x8 + 44 x9 + 17 x10 - 15 x11 + 28 x12 + 49 x13 - 87 x14 - 90 x15 + 54 x16 + 40 x17 - 76 x18 - 40 x19 - 86 x20  <= 37
- 27 x1 + 45 x2 - 61 x3 - 69 x4 - 68 x5 + 66 x6 + 9 x7 - 37 x8 + 5 x9 - 13 x10 - 58 x11 + 45 x12 - 100 x13 + 16 x14 - 5 x15 + 87 x16 + 52 x17 - 75 x18 - 98 x19  <= 68
70 x1 - 82 x2 + 71 x3 + 57 x4 + 15 x5 - 81 x6 + 65 x7 + 49 x8 + 81 x9 + 1 x10 + 76 x11 + 92 x12 + 12 x13 - 5 x14 - 17 x15 + 29 x16 + 75 x17 + 16 x18 - 56 x19 + 99 x20  <= -69
38 x1 + 40 x2 + 97 x3 + 29 x4 + 30 x5 + 68 x6 + 36 x7 + 93 x8 - 34 x9 + 59 x10 - 68 x11 + 72 x12 + 20 x13 - 16 x14 + 96 x15 + 73 x16 - 7 x17 - 51 x18 + 68 x19 + 68 x20  <= 47
- 74 x1 - 5 x2 + 56 x3 + 13 x5 - 11 x6 - 93 x7 - 34 x8 - 15 x9 + 16 x10 - 83 x11 + 34 x12 + 17 x13 - 53 x14 + 48 x15 + 91 x16 + 72 x17 - 86 x18 + 7 x19 - 24 x20  <= -100
43 x1 - 90 x2 - 96 x3 + 51 x4 + 25 x5 + 86 x6 + 9 x7 - 17 x8 - 22 x9 - 61 x10 - 39 x11 - 58 x12 + 21 x13 - 26 x14 - 68 x15 - 8 x16 + 60 x17 - 64 x18 + 43 x19 - 5 x20  <= -72
26 x1 - 52 x2 - 76 x3 + 74 x4 - 80 x5 + 50 x6 - 24 x7 + 10 x8 - 85 x9 - 25 x10 + 24 x11 + 57 x12 - 16 x13 + 64 x14 + 9 x15 + 45 x16 - 2 x17 - 48 x18 - 2 x20  <= -2
69 x1 + 83 x2 - 28 x3 + 8 x4 + 20 x5 + 21 x6 - 12 x7 + 41 x8 - 57 x9 + 52 x10 - 39 x11 + 57 x12 - 82 x13 + 79 x14 + 86 x15 + 93 x16 + 23 x17 - 87 x18 - 78 x19 + 25 x20  <= -86
11 x1 - 53 x2 + 22 x3 + 86 x4 + 13 x5 + 14 x6 - 7 x7 - 76 x8 - 53 x9 + 99 x10 + 11 x11 + 72 x12 - 43 x13 + 45 x14 + 64 x15 - 2 x16 + 18 x17 - 78 x18 - 69 x19 + 39 x20  <= 18
76 x1 - 14 x2 - 58 x3 - 64 x4 + 37 x5 - 57 x6 - 47 x7 - 56 x8 - 1 x9 - 47 x10 - 11 x11 - 53 x12 - 41 x13 + 29 x14 + 49 x15 + 38 x16 - 15 x17 + 51 x18 - 20 x19 - 25 x20  <= 27
6 x1 + 79 x2 + 30 x3 + 86 x4 - 99 x5 - 66 x6 + 28 x7 + 52 x8 + 34 x9 + 53 x10 + 50 x11 + 79 x12 - 57 x13 + 26 x14 + 19 x15 + 24 x16 - 27 x17 - 86 x18 - 50 x19 - 28 x20  <= -3
- 42 x2 - 53 x3 + 32 x4 + 79 x5 + 33 x6 - 92 x7 + 67 x8 + 13 x9 - 64 x10 - 95 x11 - 5 x12 + 12 x13 - 67 x14 + 21 x15 + 28 x16 - 39 x17 + 91 x18 + 52 x19 + 26 x20  <= -87
- 74 x1 + 51 x2 - 4 x3 + 42 x4 - 77 x5 + 27 x6 - 20 x7 + 40 x8 + 56 x9 + 40 x10 - 47 x11 + 55 x12 - 74 x13 - 45 x14 - 84 x15 - 58 x16 - 61 x17 + 23 x18 + 20 x19 + 9 x20  <= 13
- 75 x1 - 86 x2 + 76 x3 - 70 x4 + 12 x5 - 37 x6 - 33 x7 - 59 x8 + 34 x9 - 93 x10 - 92 x11 + 63 x12 - 88 x13 + 41 x14 - 18 x15 + 77 x16 + 87 x17 - 100 x18 - 30 x19 + 87 x20  <= 98
- 28 x1 + 95 x2 - 95 x3 - 32 x4 + 69 x5 - 12 x6 + 40 x7 + 13 x8 - 80 x9 - 64 x10 - 52 x11 + 36 x12 + 97 x13 + 2 x14 + 80 x15 - 7 x16 - 5 x17 - 19 x18 + 51 x19 - 77 x20  <= -71
39 x1 - 48 x2 + 5 x3 - 87 x4 - 71 x5 - 18 x6 - 84 x7 + 27 x8 - 97 x9 - 52 x10 + 15 x11 - 68 x12 - 47 x13 - 85 x14 - 71 x15 - 83 x16 - 72 x17 - 6 x18 + 44 x19 - 5 x20  <= 11
- 1 x1 - 84 x2 - 41 x3 - 41 x4 - 34 x5 - 83 x6 - 81 x7 - 60 x8 - 79 x9 - 66 x10 + 66 x11 + 65 x12 + 84 x13 + 6 x14 - 6 x15 + 39 x16 + 1 x17 + 53 x18 + 96 x19 - 7 x20  <= 33
78 x1 + 70 x2 + 50 x3 + 42 x4 - 83 x5 + 59 x6 - 25 x7 - 9 x8 - 27 x9 + 55 x10 + 19 x11 - 89 x12 - 76 x13 + 11 x14 + 30 x15 - 88 x16 + 4 x17 + 68 x18 - 69 x19 - 100 x20  <= 79
- 57 x1 - 63 x2 + 93 x3 + 63 x4 + 41 x5 + 17 x6 + 35 x7 + 54 x8 - 54 x9 - 57 x10 - 26 x11 + 64 x12 - 68 x13 + 22 x14 - 76 x15 - 13 x16 - 100 x17 + 3 x18 - 8 x19 + 37 x20  <= -94
- 19 x1 - 44 x3 + 99 x4 - 27 x5 - 26 x6 + 90 x7 - 84 x8 + 22 x9 + 58 x10 - 29 x11 + 94 x12 - 64 x13 - 14 x14 + 56 x15 - 77 x16 + 6 x17 - 52 x18 + 22 x19 + 55 x20  <= -64
- 2 x1 + 86 x2 - 37 x3 - 28 x4 - 80 x5 - 26 x6 + 77 x7 + 78 x8 + 97 x9 - 79 x10 - 70 x11 + 87 x12 + 56 x13 + 75 x14 - 48 x15 - 75 x16 + 7 x17 - 31 x18 - 23 x19 - 26 x20  <= -5
45 x1 + 86 x2 - 1 x3 - 5 x4 + 91 x5 - 40 x6 - 10 x7 + 64 x8 - 24 x9 + 45 x10 - 31 x11 + 31 x12 + 72 x13 + 32 x14 + 60 x15 + 85 x16 - 36 x17 - 5 x18 + 13 x19 - 15 x20  <= 89
- 83 x1 - 15 x2 - 38 x3 + 39 x4 - 29 x5 + 6 x6 - 78 x7 + 47 x8 + 85 x9 - 72 x10 + 88 x11 - 96 x12 - 20 x13 - 60 x14 - 80 x15 - 93 x16 - 19 x17 - 11 x18 + 36 x19 - 49 x20  <= 62
- 81 x1 + 29 x2 + 1 x3 - 69 x5 + 26 x6 - 79 x7 - 58 x8 + 77 x9 + 97 x10 - 97 x11 + 72 x12 - 76 x13 - 74 x14 + 13 x15 - 74 x16 + 72 x17 + 8 x18 - 11 x19 - 37 x20  <= -14
93 x1 + 61 x2 + 44 x3 + 68 x4 + 86 x5 - 77 x6 - 7 x7 - 22 x8 - 24 x9 - 50 x10 - 74 x11 + 24 x12 + 23 x13 - 2 x14 + 3 x15 + 56 x16 - 45 x17 - 15 x18 - 79 x19 - 54 x20  <= 80
15 x1 + 62 x2 + 56 x3 + 41 x4 - 32 x5 + 87 x6 - 59 x7 + 44 x8 + 66 x9 - 31 x10 - 35 x11 - 32 x12 + 5 x13 + 10 x14 - 97 x15 - 9 x16 - 50 x18 + 1 x19 - 52 x20  <= 21
- 41 x1 + 82 x2 + 13 x3 - 41 x4 - 3 x5 - 72 x6 + 28 x7 - 74 x8 + 64 x9 + 2 x10 - 19 x11 - 69 x12 + 43 x13 - 4 x14 + 43 x15 + 70 x16 + 67 x17 - 5 x18 + 82 x19 - 84 x20  <= -67
35 x1 + 53 x2 + 82 x3 - 14 x4 + 71 x5 - 30 x6 + 33 x7 - 57 x8 - 2 x9 - 60 x10 - 18 x11 - 23 x12 + 73 x13 - 22 x14 + 53 x15 + 12 x16 - 25 x17 + 81 x18 + 69 x19 - 44 x20  <= 71
94 x1 + 52 x2 - 68 x3 - 64 x4 + 3 x5 - 38 x6 + 96 x7 + 43 x8 + 15 x9 - 16 x10 - 17 x11 - 59 x12 + 90 x13 + 76 x14 - 99 x15 - 84 x16 - 42 x17 + 73 x18 + 95 x19 + 28 x20  <= -16
73 x1 - 37 x2 + 98 x3 - 85 x4 - 45 x5 + 66 x6 - 94 x7 + 52 x8 - 23 x9 - 54 x10 - 90 x11 - 34 x12 + 95 x13 + 49 x14 + 19 x15 + 23 x16 + 22 x17 + 13 x18 - 34 x19 + 22 x20  <= -21
46 x1 - 96 x2 - 23 x3 + 22 x4 + 19 x5 + 87 x6 + 57 x7 + 63 x8 + 64 x9 + 22 x10 - 38 x11 + 63 x12 - 92 x13 - 62 x14 + 16 x15 - 65 x16 - 12 x17 + 1 x19 - 7 x20  <= -38
- 67 x1 + 50 x2 - 15 x3 + 14 x4 + 69 x5 + 58 x6 - 75 x7 + 85 x8 + 15 x9 - 11 x10 + 31 x11 - 55 x12 - 93 x13 - 34 x14 - 81 x15 - 18 x16 + 34 x17 + 5 x18 - 87 x19 + 63 x20  <= -79
- 38 x1 + 79 x2 - 71 x3 - 67 x4 + 68 x5 - 96 x6 + 98 x7 + 11 x8 + 16 x9 - 39 x10 - 74 x11 + 90 x12 - 81 x13 - 75 x14 + 6 x15 - 22 x16 - 57 x17 - 21 x18 - 61 x19 + 92 x20  <= 8
41 x1 - 33 x2 + 64 x3 + 7 x4 + 54 x5 - 93 x6 + 87 x7 + 55 x8 - 9 x9 + 84 x10 - 75 x11 - 88 x12 + 79 x13 - 49 x14 + 79 x15 - 25 x16 - 97 x17 + 15 x18 + 20 x19 - 88 x20  <= -8
56 x1 - 14 x2 - 71 x3 - 59 x4 + 83 x5 + 47 x6 - 50 x7 - 42 x8 - 69 x9 + 92 x10 + 68 x11 - 64 x12 + 35 x13 - 35 x14 - 67 x15 + 58 x16 + 34 x17 + 35 x18 - 51 x19 - 54 x20  <= 36
- 38 x1 - 27 x2 + 69 x3 + 72 x4 + 50 x5 - 77 x6 - 55 x7 + 95 x8 - 92 x9 + 19 x10 + 3 x11 - 19 x12 - 61 x13 + 34 x14 + 2 x15 + 56 x16 - 6 x17 - 49 x18 - 76 x19 + 26 x20  <= 22
6 x1 - 76 x2 - 50 x3 - 95 x4 - 25 x5 - 50 x6 + 21 x7 - 96 x8 - 96 x9 - 46 x10 + 88 x11 + 48 x12 + 2 x13 - 48 x14 + 94 x15 + 32 x16 + 66 x17 - 91 x18 + 7 x19 - 34 x20  <= -30
- 77 x1 - 65 x2 + 93 x3 + 65 x4 + 22 x5 + 34 x6 - 98 x7 + 99 x8 - 73 x9 - 93 x10 - 14 x11 + 49 x12 + 54 x13 + 23 x14 - 93 x15 - 63 x16 - 87 x17 - 22 x18 + 16 x19 + 99 x20  <= 91
- 70 x1 + 67 x2 - 18 x3 - 88 x4 - 70 x5 + 80 x6 + 39 x7 - 11 x8 - 49 x9 - 62 x10 - 32 x11 + 46 x12 - 31 x13 + 69 x14 - 47 x15 + 23 x16 - 78 x17 + 45 x18 - 66 x19 - 94 x20  <= 2
- 67 x1 + 31 x2 - 29 x3 - 5 x4 + 5 x5 + 94 x6 + 77 x7 - 42 x8 + 63 x9 - 36 x10 - 70 x11 + 37 x12 + 45 x13 - 86 x14 + 49 x15 - 22 x16 + 95 x17 + 3 x18 - 19 x19  <= -4
54 x1 + 72 x2 + 45 x3 + 61 x4 + 3 x5 - 7 x6 - 22 x7 + 52 x8 - 8 x9 + 71 x10 - 61 x11 + 87 x12 - 9 x13 - 28 x14 - 65 x15 - 71 x16 - 53 x17 + 13 x18 - 1 x19 + 52 x20  <= -26
61 x1 + 47 x2 + 44 x3 + 82 x4 - 62 x5 - 21 x6 - 80 x7 - 77 x8 - 67 x9 + 86 x10 - 62 x11 + 64 x12 + 83 x13 - 66 x14 + 79 x15 - 59 x16 - 96 x17 - 67 x18 - 61 x19 + 37 x20  <= 75
- 84 x1 - 61 x2 + 45 x3 + 67 x4 + 33 x5 + 59 x6 - 93 x7 + 46 x8 - 4 x9 + 64 x10 + 50 x11 + 51 x12 - 52 x13 - 45 x14 - 23 x15 + 34 x16 + 33 x17 + 56 x18 - 35 x19 + 45 x20  <= -83
- 63 x1 - 25 x2 + 10 x3 + 9 x4 + 34 x5 - 10 x6 + 14 x7 - 27 x8 + 94 x9 + 17 x10 + 73 x11 - 95 x12 - 93 x13 + 49 x14 - 59 x15 - 29 x16 - 29 x17 + 29 x18 + 74 x19 - 57 x20  <= 97
59 x1 - 93 x2 - 24 x3 + 99 x4 - 6 x5 + 17 x6 - 97 x7 + 98 x8 - 70 x9 - 90 x10 - 71 x11 + 99 x12 - 59 x13 + 41 x14 + 45 x15 - 31 x16 - 85 x17 - 53 x18 + 76 x19 - 78 x20  <= 20
- 26 x1 - 35 x2 - 27 x3 - 79 x4 - 93 x5 - 21 x6 + 52 x7 + 85 x8 + 6 x9 + 5 x10 - 95 x11 - 77 x12 - 14 x13 - 81 x14 - 62 x15 - 8 x16 - 33 x17 + 76 x18 - 15 x19 + 14 x20  <= 15
Bounds
x1 free
x2 free
x3 free
x4 free
x5 free
x6 free
x7 free
x8 free
x9 free
x10 free
x11 free
x12 free
x13 free
x14 free
x15 free
x16 free
x17 free
x18 free
x19 free
x20 free
End
